Minimize
 obj:
Subject To
- 92 x1 - 9 x2 + 66 x3 - 33 x4 + 12 x5 - 100 x6 - 63 x7 + 98 x8 + 49 x9 - 27 x10 - 30 x11 + 14 x12 - 74 x13 - 88 x14 + 90 x15  <= -70
16 x1 - 57 x2 + 61 x3 - 72 x4 + 24 x5 - 58 x6 - 99 x7 + 14 x8 + 86 x9 - 32 x10 + 78 x11 + 18 x12 - 22 x13 + 79 x14 + 38 x15  <= -55
92 x1 - 98 x2 - 78 x3 + 76 x4 - 77 x5 + 49 x6 - 41 x7 + 28 x8 - 15 x9 - 37 x11 - 13 x12 + 31 x13 + 40 x14 + 54 x15  <= 62
- 36 x1 + 96 x2 + 35 x3 - 70 x4 + 75 x5 + 39 x6 - 25 x7 + 12 x8 - 5 x9 - 46 x10 + 87 x11 - 48 x12 + 7 x13 + 29 x14 + 13 x15  <= 1
- 60 x1 - 83 x2 - 44 x3 + 40 x4 + 51 x5 + 33 x6 + 21 x7 - 25 x8 + 1 x9 + 9 x10 + 31 x11 + 87 x12 - 61 x13 + 18 x14 - 84 x15  <= 13
- 47 x1 + 90 x2 - 54 x3 + 60 x4 - 33 x5 + 16 x6 + 88 x7 + 28 x8 + 80 x9 - 26 x10 - 52 x11 - 2 x12 + 82 x13 - 34 x14 + 65 x15  <= -38
86 x1 + 18 x2 + 97 x3 - 22 x4 - 61 x5 + 8 x6 + 92 x7 + 29 x8 + 13 x9 + 96 x10 - 30 x11 + 99 x12 + 29 x13 + 62 x14 + 31 x15  <= -85
- 64 x1 - 59 x2 - 78 x3 + 99 x4 + 71 x5 + 25 x6 - 87 x7 + 69 x8 - 42 x9 + 40 x10 - 30 x11 + 99 x12 - 72 x13 - 49 x14 + 81 x15  <= 42
77 x1 - 14 x2 - 47 x3 - 17 x4 + 15 x5 + 7 x6 + 96 x7 + 39 x8 + 52 x9 - 100 x10 - 52 x11 - 1 x12 - 4 x13 - 80 x14  <= 72
- 19 x1 + 38 x2 - 56 x3 - 17 x4 - 11 x5 - 41 x6 + 44 x7 - 43 x8 + 35 x9 + 23 x10 - 37 x11 - 85 x12 - 55 x13 - 30 x14 + 87 x15  <= 7
- 43 x1 + 29 x2 - 76 x3 - 66 x4 + 22 x5 + 5 x6 + 20 x7 - 42 x8 - 22 x9 + 59 x10 - 30 x11 + 60 x12 - 9 x13 + 43 x14 - 45 x15  <= 51
- 26 x1 + 48 x2 - 28 x3 - 82 x4 + 16 x5 + 97 x6 - 88 x7 - 46 x8 + 97 x9 + 70 x10 - 19 x11 + 57 x12 - 31 x13 + 6 x14 + 3 x15  <= -56
11 x1 - 8 x2 + 81 x3 - 52 x4 + 55 x5 - 28 x6 - 49 x7 - 34 x8 + 55 x9 + 36 x10 + 19 x11 + 47 x12 - 72 x13 - 11 x14 - 94 x15  <= -38
- 75 x1 + 48 x2 + 88 x3 + 11 x4 + 86 x5 - 4 x6 + 59 x7 + 11 x8 + 10 x9 + 85 x10 - 14 x11 + 59 x12 + 29 x13 - 29 x14 + 90 x15  <= 78
- 43 x1 + 33 x2 - 97 x3 + 2 x4 - 90 x5 + 11 x6 - 83 x7 + 74 x8 - 81 x9 + 70 x10 - 12 x11 - 12 x12 + 17 x13 - 88 x14 + 22 x15  <= 35
- 24 x1 - 21 x2 - 44 x3 - 99 x4 + 61 x5 - 97 x6 + 94 x7 - 66 x8 + 63 x9 - 42 x10 - 31 x11 - 24 x12 - 10 x13 + 6 x14 + 2 x15  <= -63
93 x1 + 83 x2 - 31 x3 + 7 x4 + 61 x5 + 96 x6 + 76 x7 + 77 x8 + 7 x9 - 89 x10 + 89 x11 + 22 x12 + 40 x13 + 90 x14 - 29 x15  <= -4
13 x1 - 70 x2 + 78 x3 - 99 x4 - 96 x5 + 28 x6 + 13 x7 - 33 x8 + 32 x9 + 45 x10 - 15 x11 - 81 x12 - 13 x13 + 45 x14 - 69 x15  <= -44
- 100 x1 - 21 x2 - 84 x3 + 37 x4 - 51 x5 + 82 x6 - 91 x7 - 5 x8 - 13 x9 + 62 x10 + 58 x11 + 45 x12 + 73 x13 - 47 x14 - 3 x15  <= -75
- 17 x1 - 53 x2 - 26 x3 - 57 x4 + 9 x5 - 64 x6 + 3 x7 - 99 x8 + 77 x9 + 36 x11 + 18 x12 - 43 x13 - 66 x14 - 47 x15  <= 28
- 31 x2 - 42 x3 + 19 x4 + 79 x5 - 87 x6 - 57 x7 + 69 x8 + 46 x9 + 31 x10 + 37 x11 + 23 x12 - 50 x13 - 76 x14 + 57 x15  <= -74
10 x1 + 65 x2 - 40 x3 + 33 x4 + 5 x5 - 13 x6 + 8 x7 - 2 x8 - 36 x9 + 50 x10 + 89 x11 - 75 x12 - 43 x13 + 25 x14 + 64 x15  <= -98
- 39 x1 - 98 x2 + 57 x3 - 19 x4 + 46 x5 - 79 x6 + 92 x7 + 40 x8 - 27 x9 + 63 x10 + 44 x11 + 92 x12 - 41 x13 - 19 x14 + 95 x15  <= 74
30 x1 + 71 x2 + 49 x3 - 83 x4 - 82 x5 - 88 x6 - 24 x7 + 31 x8 - 79 x9 + 33 x10 - 80 x11 - 70 x12 - 24 x13 - 76 x14 + 30 x15  <= -81
65 x1 - 17 x2 + 68 x3 - 53 x4 - 29 x5 - 98 x6 - 71 x7 - 15 x8 - 90 x9 + 93 x10 - 72 x11 - 57 x12 + 91 x13 + 23 x14 - 31 x15  <= -28
6 x1 + 84 x2 + 51 x3 + 42 x4 + 3 x5 + 29 x6 + 67 x7 - 40 x8 + 18 x9 + 77 x10 - 98 x11 + 36 x12 - 66 x13 - 93 x14 - 88 x15  <= -1
- 76 x1 + 9 x2 - 74 x3 + 7 x4 + 51 x5 + 94 x6 - 26 x7 + 28 x8 + 90 x9 - 13 x10 - 93 x11 - 17 x12 - 74 x13 - 39 x14 - 78 x15  <= -12
69 x1 + 72 x2 - 13 x3 - 60 x4 - 49 x5 - 4 x6 - 46 x7 + 97 x8 - 18 x9 + 34 x10 + 25 x11 + 43 x12 - 20 x13 + 98 x14 + 9 x15  <= -32
50 x1 - 10 x2 + 12 x3 + 26 x4 - 66 x5 - 69 x6 - 97 x7 + 29 x8 + 45 x9 - 9 x10 - 15 x12 + 55 x13 + 1 x14 - 92 x15  <= 97
50 x1 - 15 x2 - 84 x3 - 98 x4 - 60 x5 - 3 x6 + 70 x7 - 72 x8 - 70 x9 - 32 x10 + 51 x11 - 22 x12 - 29 x13 - 90 x14 + 88 x15  <= -66
84 x1 + 20 x2 - 34 x3 - 79 x4 - 1 x5 + 93 x6 - 11 x7 - 76 x8 + 3 x9 + 76 x10 + 28 x11 - 84 x12 - 45 x13 + 74 x14 + 57 x15  <= 19
- 78 x1 + 20 x2 + 68 x3 + 74 x4 + 81 x5 + 77 x6 - 45 x7 + 21 x8 - 53 x9 - 19 x10 - 94 x11 - 53 x12 + 56 x13 + 49 x14 + 12 x15  <= 4
- 29 x1 - 45 x2 + 60 x3 - 12 x4 + 63 x5 - 55 x6 + 50 x7 + 50 x8 - 44 x9 + 88 x10 - 83 x11 + 45 x12 - 8 x13 + 41 x14 - 9 x15  <= -60
42 x1 - 90 x2 - 8 x3 + 51 x4 - 92 x5 - 90 x6 - 50 x7 - 20 x8 - 24 x9 - 92 x10 + 1 x11 - 72 x12 + 39 x13 - 17 x14 + 72 x15  <= 49
- 4 x1 - 56 x2 + 48 x3 - 4 x4 + 54 x6 + 41 x7 - 64 x8 - 90 x9 - 3 x10 - 26 x11 + 38 x12 + 74 x13 + 44 x14 + 89 x15  <= -66
98 x1 - 63 x2 + 5 x3 + 82 x4 + 44 x5 - 100 x6 - 13 x7 + 92 x8 - 54 x9 - 51 x10 - 7 x12 + 39 x13 - 28 x14 - 94 x15  <= 4
- 30 x1 - 53 x2 - 50 x3 - 76 x4 - 30 x5 - 92 x6 - 50 x7 + 55 x8 + 14 x9 - 61 x10 + 56 x11 - 68 x12 + 49 x13 + 48 x14  <= -12
64 x1 - 29 x2 + 65 x3 - 19 x4 - 66 x5 - 72 x6 - 68 x7 + 26 x8 + 34 x9 - 42 x10 - 94 x11 + 56 x12 - 60 x13 - 36 x14 - 72 x15  <= 27
70 x1 - 77 x2 - 82 x3 + 70 x4 - 21 x5 - 86 x6 - 79 x7 + 63 x8 + 71 x9 - 22 x10 - 79 x11 + 91 x12 - 69 x13 - 93 x14 - 99 x15  <= -97
53 x1 + 39 x2 - 59 x3 + 39 x4 - 61 x5 + 35 x6 + 14 x7 + 19 x8 - 57 x9 + 76 x10 + 4 x11 + 64 x12 - 65 x13 + 49 x14 - 52 x15  <= -7
Bounds
x1 free
x2 free
x3 free
x4 free
x5 free
x6 free
x7 free
x8 free
x9 free
x10 free
x11 free
x12 free
x13 free
x14 free
x15 free
End
